c 
c G(n,p) graph
c graph gen seed     : 70102
c number of vertices : 80
c max number of edges: 3160
c edge probability   : 0.400000
c data structure     : sparse
c
c           Graph Stats
c number of vertices  : 80
c nonisolated vertices: 80
c number of edges     : 1274
c edge density        : 0.403165
c max degree          : 41
c avg degree          : 31.85
c min degree          : 19
p col 80 1274
e 1 80
e 1 76
e 1 75
e 1 74
e 1 73
e 1 69
e 1 66
e 1 65
e 1 63
e 1 59
e 1 58
e 1 57
e 1 53
e 1 52
e 1 51
e 1 48
e 1 46
e 1 43
e 1 41
e 1 36
e 1 35
e 1 34
e 1 33
e 1 29
e 1 28
e 1 26
e 1 16
e 1 13
e 1 12
e 1 8
e 1 4
e 1 3
e 1 2
e 2 75
e 2 73
e 2 70
e 2 69
e 2 67
e 2 62
e 2 55
e 2 52
e 2 47
e 2 46
e 2 44
e 2 43
e 2 38
e 2 35
e 2 29
e 2 24
e 2 23
e 2 22
e 2 20
e 2 19
e 2 18
e 2 15
e 2 14
e 2 12
e 2 11
e 2 9
e 2 5
e 2 4
e 3 79
e 3 72
e 3 71
e 3 70
e 3 66
e 3 64
e 3 63
e 3 62
e 3 52
e 3 46
e 3 41
e 3 40
e 3 39
e 3 37
e 3 36
e 3 32
e 3 29
e 3 28
e 3 27
e 3 26
e 3 24
e 3 23
e 3 21
e 3 19
e 3 17
e 3 15
e 3 10
e 3 7
e 4 76
e 4 75
e 4 71
e 4 67
e 4 66
e 4 65
e 4 64
e 4 63
e 4 57
e 4 52
e 4 49
e 4 47
e 4 46
e 4 45
e 4 44
e 4 43
e 4 36
e 4 35
e 4 34
e 4 33
e 4 29
e 4 27
e 4 25
e 4 23
e 4 22
e 4 21
e 4 16
e 4 14
e 4 12
e 4 10
e 4 8
e 4 7
e 4 6
e 4 5
e 5 79
e 5 77
e 5 75
e 5 74
e 5 72
e 5 70
e 5 69
e 5 66
e 5 65
e 5 63
e 5 61
e 5 59
e 5 58
e 5 55
e 5 52
e 5 51
e 5 50
e 5 49
e 5 48
e 5 44
e 5 41
e 5 34
e 5 32
e 5 28
e 5 26
e 5 22
e 5 16
e 5 15
e 5 12
e 5 9
e 5 7
e 6 79
e 6 78
e 6 70
e 6 68
e 6 65
e 6 64
e 6 62
e 6 54
e 6 51
e 6 47
e 6 45
e 6 43
e 6 42
e 6 40
e 6 39
e 6 38
e 6 36
e 6 35
e 6 32
e 6 29
e 6 28
e 6 21
e 6 20
e 6 18
e 6 14
e 6 13
e 6 11
e 6 7
e 7 78
e 7 73
e 7 72
e 7 71
e 7 69
e 7 68
e 7 67
e 7 64
e 7 62
e 7 59
e 7 58
e 7 55
e 7 52
e 7 50
e 7 49
e 7 47
e 7 44
e 7 41
e 7 39
e 7 34
e 7 31
e 7 29
e 7 26
e 7 20
e 7 19
e 7 18
e 7 17
e 7 15
e 7 14
e 7 9
e 7 8
e 8 76
e 8 74
e 8 73
e 8 70
e 8 68
e 8 67
e 8 66
e 8 64
e 8 63
e 8 60
e 8 59
e 8 58
e 8 57
e 8 54
e 8 50
e 8 45
e 8 41
e 8 39
e 8 38
e 8 30
e 8 28
e 8 26
e 8 25
e 8 24
e 8 21
e 8 20
e 8 19
e 8 15
e 8 10
e 9 79
e 9 77
e 9 76
e 9 74
e 9 71
e 9 70
e 9 69
e 9 68
e 9 67
e 9 66
e 9 65
e 9 64
e 9 63
e 9 56
e 9 52
e 9 50
e 9 49
e 9 47
e 9 45
e 9 44
e 9 42
e 9 40
e 9 39
e 9 37
e 9 35
e 9 34
e 9 33
e 9 31
e 9 30
e 9 29
e 9 28
e 9 27
e 9 22
e 9 18
e 9 17
e 9 13
e 9 12
e 9 10
e 10 80
e 10 79
e 10 74
e 10 73
e 10 71
e 10 69
e 10 68
e 10 67
e 10 66
e 10 61
e 10 54
e 10 51
e 10 47
e 10 45
e 10 43
e 10 39
e 10 37
e 10 36
e 10 34
e 10 33
e 10 32
e 10 30
e 10 27
e 10 24
e 10 23
e 10 22
e 10 17
e 10 15
e 10 13
e 11 79
e 11 71
e 11 70
e 11 66
e 11 59
e 11 55
e 11 53
e 11 49
e 11 48
e 11 47
e 11 46
e 11 43
e 11 41
e 11 37
e 11 35
e 11 34
e 11 31
e 11 28
e 11 24
e 11 23
e 11 21
e 11 17
e 11 15
e 11 13
e 12 76
e 12 74
e 12 71
e 12 68
e 12 65
e 12 62
e 12 61
e 12 58
e 12 57
e 12 56
e 12 53
e 12 52
e 12 51
e 12 46
e 12 42
e 12 36
e 12 35
e 12 33
e 12 28
e 12 25
e 12 22
e 12 20
e 12 19
e 12 18
e 12 17
e 12 14
e 12 13
e 13 80
e 13 73
e 13 71
e 13 69
e 13 67
e 13 66
e 13 63
e 13 62
e 13 61
e 13 59
e 13 58
e 13 57
e 13 56
e 13 54
e 13 53
e 13 51
e 13 49
e 13 44
e 13 40
e 13 39
e 13 26
e 13 25
e 13 24
e 13 21
e 13 20
e 13 19
e 13 15
e 13 14
e 14 80
e 14 79
e 14 78
e 14 75
e 14 74
e 14 73
e 14 72
e 14 71
e 14 69
e 14 68
e 14 64
e 14 63
e 14 59
e 14 58
e 14 57
e 14 49
e 14 46
e 14 39
e 14 37
e 14 36
e 14 34
e 14 33
e 14 32
e 14 29
e 14 25
e 14 21
e 14 19
e 14 15
e 15 76
e 15 74
e 15 71
e 15 69
e 15 67
e 15 66
e 15 64
e 15 63
e 15 57
e 15 56
e 15 54
e 15 53
e 15 47
e 15 46
e 15 44
e 15 40
e 15 34
e 15 33
e 15 27
e 15 25
e 15 24
e 15 20
e 15 19
e 15 18
e 15 17
e 15 16
e 16 77
e 16 74
e 16 73
e 16 71
e 16 68
e 16 66
e 16 62
e 16 61
e 16 59
e 16 49
e 16 44
e 16 43
e 16 41
e 16 40
e 16 36
e 16 34
e 16 29
e 16 28
e 16 26
e 16 22
e 16 21
e 16 19
e 16 18
e 16 17
e 17 80
e 17 78
e 17 75
e 17 70
e 17 67
e 17 66
e 17 65
e 17 64
e 17 62
e 17 60
e 17 57
e 17 54
e 17 50
e 17 47
e 17 43
e 17 42
e 17 41
e 17 37
e 17 36
e 17 30
e 17 29
e 17 28
e 17 25
e 17 21
e 17 18
e 18 79
e 18 77
e 18 75
e 18 72
e 18 71
e 18 68
e 18 65
e 18 64
e 18 63
e 18 62
e 18 61
e 18 60
e 18 59
e 18 58
e 18 57
e 18 53
e 18 52
e 18 47
e 18 45
e 18 44
e 18 43
e 18 41
e 18 36
e 18 32
e 18 28
e 18 27
e 18 24
e 19 80
e 19 77
e 19 70
e 19 68
e 19 58
e 19 57
e 19 52
e 19 50
e 19 49
e 19 46
e 19 44
e 19 42
e 19 32
e 19 29
e 19 28
e 19 26
e 19 24
e 19 23
e 19 22
e 20 77
e 20 76
e 20 72
e 20 67
e 20 65
e 20 62
e 20 61
e 20 53
e 20 50
e 20 49
e 20 46
e 20 43
e 20 42
e 20 39
e 20 37
e 20 32
e 20 31
e 20 28
e 20 24
e 21 79
e 21 78
e 21 70
e 21 69
e 21 66
e 21 64
e 21 63
e 21 60
e 21 56
e 21 54
e 21 53
e 21 51
e 21 50
e 21 47
e 21 46
e 21 45
e 21 41
e 21 40
e 21 38
e 21 37
e 21 35
e 21 33
e 21 31
e 21 29
e 22 78
e 22 77
e 22 75
e 22 74
e 22 70
e 22 67
e 22 64
e 22 62
e 22 61
e 22 58
e 22 54
e 22 44
e 22 42
e 22 39
e 22 38
e 22 37
e 22 35
e 22 33
e 22 32
e 22 31
e 22 27
e 22 25
e 23 79
e 23 67
e 23 66
e 23 60
e 23 46
e 23 45
e 23 41
e 23 40
e 23 38
e 23 32
e 23 31
e 23 28
e 23 25
e 24 79
e 24 75
e 24 74
e 24 73
e 24 71
e 24 68
e 24 67
e 24 62
e 24 58
e 24 54
e 24 53
e 24 49
e 24 45
e 24 43
e 24 41
e 24 40
e 24 33
e 24 32
e 24 30
e 24 29
e 25 80
e 25 76
e 25 73
e 25 72
e 25 71
e 25 69
e 25 67
e 25 65
e 25 63
e 25 62
e 25 59
e 25 56
e 25 54
e 25 53
e 25 51
e 25 40
e 25 39
e 25 37
e 25 36
e 25 33
e 25 30
e 25 29
e 26 80
e 26 78
e 26 77
e 26 76
e 26 75
e 26 72
e 26 70
e 26 69
e 26 67
e 26 65
e 26 64
e 26 63
e 26 61
e 26 60
e 26 57
e 26 56
e 26 55
e 26 53
e 26 52
e 26 48
e 26 46
e 26 44
e 26 43
e 26 40
e 26 36
e 26 33
e 26 31
e 26 29
e 26 28
e 27 79
e 27 78
e 27 74
e 27 71
e 27 70
e 27 69
e 27 68
e 27 66
e 27 64
e 27 62
e 27 61
e 27 60
e 27 57
e 27 55
e 27 54
e 27 51
e 27 50
e 27 47
e 27 44
e 27 41
e 27 40
e 27 38
e 27 36
e 27 29
e 27 28
e 28 76
e 28 73
e 28 70
e 28 67
e 28 65
e 28 62
e 28 61
e 28 56
e 28 54
e 28 52
e 28 49
e 28 48
e 28 47
e 28 46
e 28 42
e 28 39
e 28 38
e 28 36
e 28 34
e 28 31
e 29 80
e 29 68
e 29 67
e 29 62
e 29 58
e 29 56
e 29 55
e 29 54
e 29 53
e 29 52
e 29 49
e 29 48
e 29 46
e 29 44
e 29 43
e 29 42
e 29 40
e 29 37
e 29 35
e 29 34
e 30 79
e 30 78
e 30 76
e 30 75
e 30 74
e 30 69
e 30 64
e 30 59
e 30 56
e 30 54
e 30 53
e 30 51
e 30 50
e 30 48
e 30 47
e 30 43
e 30 42
e 30 41
e 30 40
e 30 38
e 30 35
e 30 32
e 30 31
e 31 73
e 31 71
e 31 66
e 31 65
e 31 64
e 31 62
e 31 59
e 31 56
e 31 55
e 31 54
e 31 53
e 31 52
e 31 51
e 31 49
e 31 45
e 31 41
e 31 38
e 31 36
e 31 35
e 31 34
e 31 33
e 32 79
e 32 77
e 32 75
e 32 72
e 32 70
e 32 69
e 32 65
e 32 63
e 32 62
e 32 61
e 32 54
e 32 50
e 32 47
e 32 40
e 32 39
e 32 38
e 32 36
e 32 35
e 32 34
e 33 80
e 33 78
e 33 76
e 33 75
e 33 72
e 33 69
e 33 68
e 33 64
e 33 61
e 33 60
e 33 56
e 33 52
e 33 48
e 33 45
e 33 44
e 33 43
e 33 42
e 33 41
e 33 38
e 33 37
e 33 36
e 33 34
e 34 80
e 34 78
e 34 73
e 34 71
e 34 70
e 34 69
e 34 68
e 34 67
e 34 66
e 34 62
e 34 61
e 34 58
e 34 56
e 34 52
e 34 51
e 34 47
e 34 46
e 34 44
e 34 43
e 34 41
e 34 36
e 35 80
e 35 71
e 35 70
e 35 68
e 35 67
e 35 66
e 35 65
e 35 63
e 35 60
e 35 57
e 35 56
e 35 55
e 35 54
e 35 46
e 35 43
e 35 41
e 35 38
e 36 79
e 36 77
e 36 76
e 36 75
e 36 71
e 36 62
e 36 61
e 36 60
e 36 59
e 36 58
e 36 57
e 36 56
e 36 53
e 36 50
e 36 48
e 36 47
e 36 46
e 36 45
e 36 40
e 36 37
e 37 78
e 37 72
e 37 71
e 37 69
e 37 67
e 37 64
e 37 62
e 37 61
e 37 60
e 37 55
e 37 53
e 37 51
e 37 49
e 37 48
e 37 47
e 37 46
e 37 45
e 37 39
e 38 79
e 38 78
e 38 76
e 38 68
e 38 61
e 38 60
e 38 58
e 38 57
e 38 56
e 38 52
e 38 50
e 38 49
e 38 48
e 38 46
e 38 45
e 38 43
e 38 42
e 38 40
e 38 39
e 39 80
e 39 76
e 39 75
e 39 73
e 39 72
e 39 71
e 39 70
e 39 69
e 39 68
e 39 63
e 39 61
e 39 58
e 39 57
e 39 55
e 39 54
e 39 52
e 39 51
e 39 46
e 39 45
e 39 44
e 39 40
e 40 80
e 40 69
e 40 68
e 40 67
e 40 66
e 40 65
e 40 63
e 40 56
e 40 55
e 40 52
e 40 45
e 40 43
e 41 79
e 41 78
e 41 77
e 41 76
e 41 70
e 41 69
e 41 65
e 41 64
e 41 62
e 41 60
e 41 58
e 41 57
e 41 54
e 41 51
e 41 50
e 41 48
e 41 47
e 41 45
e 41 43
e 41 42
e 42 76
e 42 74
e 42 73
e 42 66
e 42 65
e 42 58
e 42 57
e 42 55
e 42 52
e 42 51
e 42 50
e 43 79
e 43 76
e 43 74
e 43 73
e 43 72
e 43 71
e 43 70
e 43 68
e 43 67
e 43 66
e 43 60
e 43 59
e 43 58
e 43 57
e 43 56
e 43 54
e 43 52
e 43 51
e 43 50
e 43 48
e 44 77
e 44 76
e 44 75
e 44 73
e 44 69
e 44 68
e 44 64
e 44 63
e 44 61
e 44 54
e 44 53
e 45 80
e 45 74
e 45 72
e 45 70
e 45 68
e 45 66
e 45 60
e 45 58
e 45 55
e 45 54
e 45 53
e 45 51
e 45 50
e 45 49
e 45 47
e 46 74
e 46 71
e 46 70
e 46 66
e 46 65
e 46 63
e 46 62
e 46 61
e 46 59
e 46 48
e 46 47
e 47 73
e 47 71
e 47 67
e 47 66
e 47 64
e 47 58
e 47 55
e 47 53
e 47 50
e 47 48
e 48 78
e 48 77
e 48 74
e 48 73
e 48 71
e 48 67
e 48 65
e 48 64
e 48 63
e 48 62
e 48 55
e 48 54
e 48 53
e 48 51
e 49 80
e 49 79
e 49 77
e 49 69
e 49 66
e 49 65
e 49 55
e 49 53
e 49 52
e 50 80
e 50 78
e 50 77
e 50 76
e 50 75
e 50 73
e 50 72
e 50 66
e 50 63
e 50 62
e 50 61
e 50 60
e 50 55
e 50 54
e 50 53
e 50 51
e 51 77
e 51 75
e 51 74
e 51 72
e 51 71
e 51 63
e 51 62
e 51 61
e 51 58
e 51 54
e 52 79
e 52 76
e 52 74
e 52 71
e 52 67
e 52 64
e 52 63
e 52 62
e 52 61
e 52 59
e 52 54
e 53 80
e 53 79
e 53 76
e 53 71
e 53 66
e 53 64
e 53 63
e 53 62
e 53 60
e 53 59
e 53 58
e 54 80
e 54 75
e 54 73
e 54 72
e 54 71
e 54 64
e 54 63
e 54 60
e 54 59
e 55 80
e 55 79
e 55 72
e 55 69
e 55 68
e 55 65
e 55 62
e 55 61
e 55 58
e 55 57
e 55 56
e 56 80
e 56 77
e 56 76
e 56 70
e 56 63
e 56 61
e 56 60
e 57 76
e 57 74
e 57 72
e 57 70
e 57 69
e 57 66
e 57 65
e 57 63
e 57 62
e 57 61
e 57 60
e 57 58
e 58 80
e 58 79
e 58 75
e 58 73
e 58 69
e 58 62
e 58 61
e 59 77
e 59 76
e 59 74
e 59 73
e 59 70
e 59 67
e 59 65
e 60 78
e 60 77
e 60 75
e 60 73
e 60 71
e 60 69
e 60 67
e 60 62
e 61 80
e 61 79
e 61 76
e 61 71
e 61 70
e 61 68
e 61 67
e 62 77
e 62 75
e 62 73
e 62 72
e 62 70
e 62 68
e 62 67
e 63 79
e 63 78
e 63 72
e 63 70
e 63 68
e 63 66
e 63 65
e 64 80
e 64 79
e 64 77
e 64 74
e 64 73
e 64 70
e 64 69
e 65 80
e 65 79
e 65 77
e 65 76
e 65 75
e 65 74
e 65 66
e 66 79
e 66 78
e 66 76
e 66 75
e 66 72
e 66 71
e 66 68
e 66 67
e 67 80
e 67 79
e 67 76
e 67 72
e 67 70
e 67 68
e 68 78
e 68 74
e 68 71
e 68 70
e 68 69
e 69 80
e 69 76
e 69 75
e 70 80
e 70 77
e 70 76
e 70 73
e 70 72
e 71 80
e 71 76
e 71 74
e 71 73
e 72 80
e 72 78
e 72 76
e 73 80
e 73 76
e 73 75
e 74 79
e 74 78
e 74 77
e 74 75
e 75 80
e 75 76
e 76 79
e 76 77
